 vasp.5.4.4.18Apr17-6-g9f103f2a35 (build Jul 15 2022 10:41:44) complex
 executed on             LinuxGNU date 2022.07.19  15:15:07

 INCAR:
 POTCAR:    PAW_PBE Ba_sv 06Sep2000
 POTCAR:    PAW_PBE Ti_sv 26Sep2005
 POTCAR:    PAW_PBE O 08Apr2002
 POTCAR:    PAW_PBE Ba_sv 06Sep2000
   VRHFIN =Ba: 5s5p6s

   TITEL  = PAW_PBE Ba_sv 06Sep2000
   POMASS =  137.327; ZVAL   =   10.000    mass and valenz
   ENMAX  =  187.181; ENMIN  =  140.386 eV

 POTCAR:    PAW_PBE Ti_sv 26Sep2005
   VRHFIN =Ti: 3p4s3d

   TITEL  = PAW_PBE Ti_sv 26Sep2005
   POMASS =   47.880; ZVAL   =   12.000    mass and valenz
   ENMAX  =  274.610; ENMIN  =  205.957 eV

 POTCAR:    PAW_PBE O 08Apr2002
   VRHFIN =O: s2p4

   TITEL  = PAW_PBE O 08Apr2002
   POMASS =   16.000; ZVAL   =    6.000    mass and valenz
   ENMAX  =  400.000; ENMIN  =  300.000 eV

 WARNING: PSMAXN for non-local potential too small
          PSMAXN should be >   13.554559223799082       NTYP=           1

  PAW_PBE Ba_sv 06Sep2000               :
  PAW_PBE Ti_sv 26Sep2005               :
  PAW_PBE O 08Apr2002                   :

 POSCAR: Ba Ti O
  positions in direct lattice
 exchange correlation table for  LEXCH =       14
   RHO(1)=    0.500       N(1)  =     2000
   RHO(2)=  100.500       N(2)  =     4000

 ion  position               nearest neighbor table
   1  0.000  0.000  0.000-   3 2.82   4 2.82   5 2.82   4 2.82   5 2.82   3 2.82   4 2.82   4 2.82
                             3 2.82   5 2.82   5 2.82   3 2.82   2 3.45   2 3.45   2 3.45   2 3.45
   2  0.500  0.500  0.500-   3 1.99   4 1.99   5 1.99   3 1.99   5 1.99   4 1.99   1 3.45   1 3.45
                             1 3.45   1 3.45   1 3.45   1 3.45   1 3.45   1 3.45
   3  0.500  0.500  0.000-   2 1.99   2 1.99   1 2.82   1 2.82   1 2.82   1 2.82
   4  0.000  0.500  0.500-   2 1.99   2 1.99   1 2.82   1 2.82   1 2.82   1 2.82
   5  0.500  0.000  0.500-   2 1.99   2 1.99   1 2.82   1 2.82   1 2.82   1 2.82

  LATTYP: Found a simple cubic cell.
 ALAT       =     3.9843434111

  Lattice vectors:

 A1 = (   3.9843434111,   0.0000000000,   0.0000000000)
 A2 = (   0.0000000000,   3.9843434111,   0.0000000000)
 A3 = (   0.0000000000,   0.0000000000,   3.9843434111)

Analysis of symmetry for initial positions (statically):
 Subroutine PRICEL returns:
 Original cell was already a primitive cell.

 Routine SETGRP: Setting up the symmetry group for a
 simple cubic supercell.

 Subroutine GETGRP returns: Found 48 space group operations
 (whereof 48 operations were pure point group operations)
 out of a pool of 48 trial point group operations.

The static configuration has the point symmetry O_h .

Analysis of symmetry for dynamics (positions and initial velocities):
 Subroutine PRICEL returns:
 Original cell was already a primitive cell.

 Routine SETGRP: Setting up the symmetry group for a
 simple cubic supercell.

 Subroutine GETGRP returns: Found 48 space group operations
 (whereof 48 operations were pure point group operations)
 out of a pool of 48 trial point group operations.

The dynamic configuration has the point symmetry O_h .

 Subroutine INISYM returns: Found 48 space group operations
 (whereof 48 operations are pure point group operations),
 and found     1 'primitive' translations

 KPOINTS: Automatic mesh

Automatic generation of k-mesh.
Space group operators:
 irot       det(A)        alpha          n_x          n_y          n_z        tau_x        tau_y        tau_z
    1     1.000000     0.000000     1.000000     0.000000     0.000000     0.000000     0.000000     0.000000
    2    -1.000000     0.000000     1.000000     0.000000     0.000000     0.000000     0.000000     0.000000
    3     1.000000   120.000000    -0.577350    -0.577350    -0.577350     0.000000     0.000000     0.000000
    4    -1.000000   120.000000    -0.577350    -0.577350    -0.577350     0.000000     0.000000     0.000000
    5     1.000000   120.000000     0.577350     0.577350     0.577350     0.000000     0.000000     0.000000
    6    -1.000000   120.000000     0.577350     0.577350     0.577350     0.000000     0.000000     0.000000
    7     1.000000    90.000000     0.000000     0.000000    -1.000000     0.000000     0.000000     0.000000
    8    -1.000000    90.000000     0.000000     0.000000    -1.000000     0.000000     0.000000     0.000000
    9     1.000000   180.000000     0.000000     0.707107     0.707107     0.000000     0.000000     0.000000
   10    -1.000000   180.000000     0.000000     0.707107     0.707107     0.000000     0.000000     0.000000
   11     1.000000    90.000000     0.000000     1.000000     0.000000     0.000000     0.000000     0.000000
   12    -1.000000    90.000000     0.000000     1.000000     0.000000     0.000000     0.000000     0.000000
   13     1.000000   180.000000     0.000000     0.000000     1.000000     0.000000     0.000000     0.000000
   14    -1.000000   180.000000     0.000000     0.000000     1.000000     0.000000     0.000000     0.000000
   15     1.000000   120.000000    -0.577350     0.577350     0.577350     0.000000     0.000000     0.000000
   16    -1.000000   120.000000    -0.577350     0.577350     0.577350     0.000000     0.000000     0.000000
   17     1.000000   120.000000    -0.577350     0.577350    -0.577350     0.000000     0.000000     0.000000
   18    -1.000000   120.000000    -0.577350     0.577350    -0.577350     0.000000     0.000000     0.000000
   19     1.000000    90.000000     0.000000     0.000000     1.000000     0.000000     0.000000     0.000000
   20    -1.000000    90.000000     0.000000     0.000000     1.000000     0.000000     0.000000     0.000000
   21     1.000000    90.000000    -1.000000     0.000000     0.000000     0.000000     0.000000     0.000000
   22    -1.000000    90.000000    -1.000000     0.000000     0.000000     0.000000     0.000000     0.000000
   23     1.000000   180.000000     0.707107     0.000000     0.707107     0.000000     0.000000     0.000000
   24    -1.000000   180.000000     0.707107     0.000000     0.707107     0.000000     0.000000     0.000000
   25     1.000000   120.000000     0.577350    -0.577350     0.577350     0.000000     0.000000     0.000000
   26    -1.000000   120.000000     0.577350    -0.577350     0.577350     0.000000     0.000000     0.000000
   27     1.000000   120.000000    -0.577350    -0.577350     0.577350     0.000000     0.000000     0.000000
   28    -1.000000   120.000000    -0.577350    -0.577350     0.577350     0.000000     0.000000     0.000000
   29     1.000000   180.000000     1.000000     0.000000     0.000000     0.000000     0.000000     0.000000
   30    -1.000000   180.000000     1.000000     0.000000     0.000000     0.000000     0.000000     0.000000
   31     1.000000    90.000000     0.000000    -1.000000     0.000000     0.000000     0.000000     0.000000
   32    -1.000000    90.000000     0.000000    -1.000000     0.000000     0.000000     0.000000     0.000000
   33     1.000000   180.000000     0.707107     0.707107     0.000000     0.000000     0.000000     0.000000
   34    -1.000000   180.000000     0.707107     0.707107     0.000000     0.000000     0.000000     0.000000
   35     1.000000    90.000000     1.000000     0.000000     0.000000     0.000000     0.000000     0.000000
   36    -1.000000    90.000000     1.000000     0.000000     0.000000     0.000000     0.000000     0.000000
   37     1.000000   120.000000     0.577350    -0.577350    -0.577350     0.000000     0.000000     0.000000
   38    -1.000000   120.000000     0.577350    -0.577350    -0.577350     0.000000     0.000000     0.000000
   39     1.000000   180.000000     0.000000     1.000000     0.000000     0.000000     0.000000     0.000000
   40    -1.000000   180.000000     0.000000     1.000000     0.000000     0.000000     0.000000     0.000000
   41     1.000000   120.000000     0.577350     0.577350    -0.577350     0.000000     0.000000     0.000000
   42    -1.000000   120.000000     0.577350     0.577350    -0.577350     0.000000     0.000000     0.000000
   43     1.000000   180.000000     0.000000    -0.707107     0.707107     0.000000     0.000000     0.000000
   44    -1.000000   180.000000     0.000000    -0.707107     0.707107     0.000000     0.000000     0.000000
   45     1.000000   180.000000     0.707107    -0.707107     0.000000     0.000000     0.000000     0.000000
   46    -1.000000   180.000000     0.707107    -0.707107     0.000000     0.000000     0.000000     0.000000
   47     1.000000   180.000000     0.707107     0.000000    -0.707107     0.000000     0.000000     0.000000
   48    -1.000000   180.000000     0.707107     0.000000    -0.707107     0.000000     0.000000     0.000000

 Subroutine IBZKPT returns following result:

 Found    120 irreducible k-points:

 Following reciprocal coordinates:
            Coordinates               Weight
  0.000000  0.000000  0.000000      1.000000
  0.066667  0.000000  0.000000      6.000000
  0.133333  0.000000  0.000000      6.000000
  0.200000  0.000000  0.000000      6.000000
  0.266667  0.000000  0.000000      6.000000
  0.333333  0.000000  0.000000      6.000000
  0.400000  0.000000  0.000000      6.000000
  0.466667  0.000000  0.000000      6.000000
  0.066667  0.066667  0.000000     12.000000
  0.133333  0.066667  0.000000     24.000000
  0.200000  0.066667  0.000000     24.000000
  0.266667  0.066667  0.000000     24.000000
  0.333333  0.066667  0.000000     24.000000
  0.400000  0.066667  0.000000     24.000000
  0.466667  0.066667  0.000000     24.000000
  0.133333  0.133333  0.000000     12.000000
  0.200000  0.133333  0.000000     24.000000
  0.266667  0.133333  0.000000     24.000000
  0.333333  0.133333  0.000000     24.000000
  0.400000  0.133333  0.000000     24.000000
  0.466667  0.133333  0.000000     24.000000
  0.200000  0.200000  0.000000     12.000000
  0.266667  0.200000  0.000000     24.000000
  0.333333  0.200000  0.000000     24.000000
  0.400000  0.200000  0.000000     24.000000
  0.466667  0.200000  0.000000     24.000000
  0.266667  0.266667  0.000000     12.000000
  0.333333  0.266667  0.000000     24.000000
  0.400000  0.266667  0.000000     24.000000
  0.466667  0.266667  0.000000     24.000000
  0.333333  0.333333  0.000000     12.000000
  0.400000  0.333333  0.000000     24.000000
  0.466667  0.333333  0.000000     24.000000
  0.400000  0.400000  0.000000     12.000000
  0.466667  0.400000  0.000000     24.000000
  0.466667  0.466667  0.000000     12.000000
  0.066667  0.066667  0.066667      8.000000
  0.133333  0.066667  0.066667     24.000000
  0.200000  0.066667  0.066667     24.000000
  0.266667  0.066667  0.066667     24.000000
  0.333333  0.066667  0.066667     24.000000
  0.400000  0.066667  0.066667     24.000000
  0.466667  0.066667  0.066667     24.000000
  0.133333  0.133333  0.066667     24.000000
  0.200000  0.133333  0.066667     48.000000
  0.266667  0.133333  0.066667     48.000000
  0.333333  0.133333  0.066667     48.000000
  0.400000  0.133333  0.066667     48.000000
  0.466667  0.133333  0.066667     48.000000
  0.200000  0.200000  0.066667     24.000000
  0.266667  0.200000  0.066667     48.000000
[...]
   0.40000000  0.20000000  0.06666667       0.014
   0.46666667  0.20000000  0.06666667       0.014
   0.26666667  0.26666667  0.06666667       0.007
   0.33333333  0.26666667  0.06666667       0.014
   0.40000000  0.26666667  0.06666667       0.014
   0.46666667  0.26666667  0.06666667       0.014
   0.33333333  0.33333333  0.06666667       0.007
   0.40000000  0.33333333  0.06666667       0.014
[...]
   0.40000000  0.33333333  0.26666667       0.014
   0.46666667  0.33333333  0.26666667       0.014
   0.40000000  0.40000000  0.26666667       0.007
   0.46666667  0.40000000  0.26666667       0.014
   0.46666667  0.46666667  0.26666667       0.007
   0.33333333  0.33333333  0.33333333       0.002
   0.40000000  0.33333333  0.33333333       0.007
   0.46666667  0.33333333  0.33333333       0.007
   0.40000000  0.40000000  0.33333333       0.007
   0.46666667  0.40000000  0.33333333       0.014
   0.46666667  0.46666667  0.33333333       0.007
   0.40000000  0.40000000  0.40000000       0.002
   0.46666667  0.40000000  0.40000000       0.007
   0.46666667  0.46666667  0.40000000       0.007
   0.46666667  0.46666667  0.46666667       0.002

 position of ions in fractional coordinates (direct lattice)
   0.00000000  0.00000000  0.00000000
   0.50000000  0.50000000  0.50000000
   0.50000000  0.50000000  0.00000000
   0.00000000  0.50000000  0.50000000
   0.50000000  0.00000000  0.50000000

 position of ions in cartesian coordinates  (Angst):
   0.00000000  0.00000000  0.00000000
   1.99217171  1.99217171  1.99217171
   1.99217171  1.99217171  0.00000000
   0.00000000  1.99217171  1.99217171
   1.99217171  0.00000000  1.99217171

 k-point  1 :   0.0000 0.0000 0.0000  plane waves:    2601
 k-point  2 :   0.0667 0.0000 0.0000  plane waves:    2653
 k-point  3 :   0.1333 0.0000 0.0000  plane waves:    2661
 k-point  4 :   0.2000 0.0000 0.0000  plane waves:    2669
 k-point  5 :   0.2667 0.0000 0.0000  plane waves:    2677
 k-point  6 :   0.3333 0.0000 0.0000  plane waves:    2677
 k-point  7 :   0.4000 0.0000 0.0000  plane waves:    2657
 k-point  8 :   0.4667 0.0000 0.0000  plane waves:    2678
 k-point  9 :   0.0667 0.0667 0.0000  plane waves:    2655
 k-point 10 :   0.1333 0.0667 0.0000  plane waves:    2655
 k-point 11 :   0.2000 0.0667 0.0000  plane waves:    2657
 k-point 12 :   0.2667 0.0667 0.0000  plane waves:    2678
 k-point 13 :   0.3333 0.0667 0.0000  plane waves:    2677
 k-point 14 :   0.4000 0.0667 0.0000  plane waves:    2670
 k-point 15 :   0.4667 0.0667 0.0000  plane waves:    2675
 k-point 16 :   0.1333 0.1333 0.0000  plane waves:    2658
 k-point 17 :   0.2000 0.1333 0.0000  plane waves:    2671
 k-point 18 :   0.2667 0.1333 0.0000  plane waves:    2679
 k-point 19 :   0.3333 0.1333 0.0000  plane waves:    2664
 k-point 20 :   0.4000 0.1333 0.0000  plane waves:    2663
 k-point 21 :   0.4667 0.1333 0.0000  plane waves:    2667
 k-point 22 :   0.2000 0.2000 0.0000  plane waves:    2674
 k-point 23 :   0.2667 0.2000 0.0000  plane waves:    2663
 k-point 24 :   0.3333 0.2000 0.0000  plane waves:    2660
 k-point 25 :   0.4000 0.2000 0.0000  plane waves:    2662
 k-point 26 :   0.4667 0.2000 0.0000  plane waves:    2668
 k-point 27 :   0.2667 0.2667 0.0000  plane waves:    2654
 k-point 28 :   0.3333 0.2667 0.0000  plane waves:    2655
 k-point 29 :   0.4000 0.2667 0.0000  plane waves:    2657
 k-point 30 :   0.4667 0.2667 0.0000  plane waves:    2661
 k-point 31 :   0.3333 0.3333 0.0000  plane waves:    2658
 k-point 32 :   0.4000 0.3333 0.0000  plane waves:    2662
 k-point 33 :   0.4667 0.3333 0.0000  plane waves:    2652
 k-point 34 :   0.4000 0.4000 0.0000  plane waves:    2656
 k-point 35 :   0.4667 0.4000 0.0000  plane waves:    2655
 k-point 36 :   0.4667 0.4667 0.0000  plane waves:    2664
 k-point 37 :   0.0667 0.0667 0.0667  plane waves:    2656
 k-point 38 :   0.1333 0.0667 0.0667  plane waves:    2655
 k-point 39 :   0.2000 0.0667 0.0667  plane waves:    2667
 k-point 40 :   0.2667 0.0667 0.0667  plane waves:    2670
 k-point 41 :   0.3333 0.0667 0.0667  plane waves:    2670
 k-point 42 :   0.4000 0.0667 0.0667  plane waves:    2661
 k-point 43 :   0.4667 0.0667 0.0667  plane waves:    2667
 k-point 44 :   0.1333 0.1333 0.0667  plane waves:    2659
 k-point 45 :   0.2000 0.1333 0.0667  plane waves:    2662
 k-point 46 :   0.2667 0.1333 0.0667  plane waves:    2670
 k-point 47 :   0.3333 0.1333 0.0667  plane waves:    2669
 k-point 48 :   0.4000 0.1333 0.0667  plane waves:    2669
 k-point 49 :   0.4667 0.1333 0.0667  plane waves:    2673
 k-point 50 :   0.2000 0.2000 0.0667  plane waves:    2673
 k-point 51 :   0.2667 0.2000 0.0667  plane waves:    2671
 k-point 52 :   0.3333 0.2000 0.0667  plane waves:    2668
 k-point 53 :   0.4000 0.2000 0.0667  plane waves:    2665
 k-point 54 :   0.4667 0.2000 0.0667  plane waves:    2668
 k-point 55 :   0.2667 0.2667 0.0667  plane waves:    2663
 k-point 56 :   0.3333 0.2667 0.0667  plane waves:    2668
 k-point 57 :   0.4000 0.2667 0.0667  plane waves:    2655
 k-point 58 :   0.4667 0.2667 0.0667  plane waves:    2654
 k-point 59 :   0.3333 0.3333 0.0667  plane waves:    2660
 k-point 60 :   0.4000 0.3333 0.0667  plane waves:    2653
[...]
 k-point 85 :   0.4667 0.4667 0.1333  plane waves:    2658
 k-point 86 :   0.2000 0.2000 0.2000  plane waves:    2659
 k-point 87 :   0.2667 0.2000 0.2000  plane waves:    2667
 k-point 88 :   0.3333 0.2000 0.2000  plane waves:    2668
 k-point 89 :   0.4000 0.2000 0.2000  plane waves:    2667
 k-point 90 :   0.4667 0.2000 0.2000  plane waves:    2659
 k-point 91 :   0.2667 0.2667 0.2000  plane waves:    2667
 k-point 92 :   0.3333 0.2667 0.2000  plane waves:    2661
 k-point 93 :   0.4000 0.2667 0.2000  plane waves:    2659
 k-point 94 :   0.4667 0.2667 0.2000  plane waves:    2655
 k-point 95 :   0.3333 0.3333 0.2000  plane waves:    2662
 k-point 96 :   0.4000 0.3333 0.2000  plane waves:    2652
 k-point 97 :   0.4667 0.3333 0.2000  plane waves:    2649
 k-point 98 :   0.4000 0.4000 0.2000  plane waves:    2647
 k-point 99 :   0.4667 0.4000 0.2000  plane waves:    2652
 k-point ** :   0.4667 0.4667 0.2000  plane waves:    2663
 k-point ** :   0.2667 0.2667 0.2667  plane waves:    2662
 k-point ** :   0.3333 0.2667 0.2667  plane waves:    2662
 k-point ** :   0.4000 0.2667 0.2667  plane waves:    2659
 k-point ** :   0.4667 0.2667 0.2667  plane waves:    2657
 k-point ** :   0.3333 0.3333 0.2667  plane waves:    2661
 k-point ** :   0.4000 0.3333 0.2667  plane waves:    2655
 k-point ** :   0.4667 0.3333 0.2667  plane waves:    2651
 k-point ** :   0.4000 0.4000 0.2667  plane waves:    2648
 k-point ** :   0.4667 0.4000 0.2667  plane waves:    2649
 k-point ** :   0.4667 0.4667 0.2667  plane waves:    2652
 k-point ** :   0.3333 0.3333 0.3333  plane waves:    2644
 k-point ** :   0.4000 0.3333 0.3333  plane waves:    2657
 k-point ** :   0.4667 0.3333 0.3333  plane waves:    2645
 k-point ** :   0.4000 0.4000 0.3333  plane waves:    2647
 k-point ** :   0.4667 0.4000 0.3333  plane waves:    2652
 k-point ** :   0.4667 0.4667 0.3333  plane waves:    2644
 k-point ** :   0.4000 0.4000 0.4000  plane waves:    2650
 k-point ** :   0.4667 0.4000 0.4000  plane waves:    2644
 k-point ** :   0.4667 0.4667 0.4000  plane waves:    2639
 k-point ** :   0.4667 0.4667 0.4667  plane waves:    2626

 maximum and minimum number of plane-waves per node :      2679     2601

 maximum number of plane-waves:      2679
 maximum index in each direction:
   IXMAX=    8   IYMAX=    8   IZMAX=    8
   IXMIN=   -9   IYMIN=   -9   IZMIN=   -9

 serial   3D FFT for wavefunctions
 parallel 3D FFT for charge:
    minimum data exchange during FFTs selected (reduces bandwidth)

 initial charge density was supplied:
 number of electron      40.0000000 magnetization
 keeping initial charge density in first step

 Maximum index for augmentation-charges       358317 (set IRDMAX)

 First call to EWALD:  gamma=   0.445
 Maximum number of real-space cells 3x 3x 3
 Maximum number of reciprocal cells 3x 3x 3

--------------------------------------- Iteration      1(   1)  ---------------------------------------

 BZINTS: Fermi energy: 22.553919; 40.000000 electrons
         Band energy: 117.498369;  BLOECHL correction: -0.306690

 eigenvalue-minimisations  :  5760
 total energy-change (2. order) : 0.4770149E+03  (-0.2597258E+04)
 number of electron      40.0000000 magnetization
 augmentation part       40.0000000 magnetization

 Free energy of the ion-electron system (eV)
  alpha Z        PSCENC =       262.28811341
  Ewald energy   TEWEN  =     -2833.75338767
  -Hartree energ DENC   =      -842.07548473
  -exchange      EXHF   =         0.00000000
  -V(xc)+E(xc)   XCENC  =       174.80520012
  PAW double counting   =      4134.13536262    -4114.71937964
  entropy T*S    EENTRO =         0.00000000
  eigenvalues    EBANDS =       117.49836902
  atomic energy  EATOM  =      3578.83610127
  Solvation  Ediel_sol  =         0.00000000
  free energy    TOTEN  =       477.01489440 eV

  energy without entropy =      477.01489440  energy(sigma->0) =      477.01489440

[...]

 BZINTS: Fermi energy:  7.351322; 40.000000 electrons
         Band energy:-344.496934;  BLOECHL correction: -0.220249

 eigenvalue-minimisations  :  6488
 total energy-change (2. order) :-0.4619953E+03  (-0.4538427E+03)
 number of electron      40.0000000 magnetization
 augmentation part       40.0000000 magnetization

[...]

--------------------------------------- Iteration      1(   9)  ---------------------------------------

[...]

 eigenvalue-minimisations  :  7944
 total energy-change (2. order) :-0.2910838E-08  (-0.2903121E-08)
 number of electron      40.0000000 magnetization
 augmentation part       40.0000000 magnetization

 Free energy of the ion-electron system (eV)
  alpha Z        PSCENC =       262.28811341
  Ewald energy   TEWEN  =     -2833.75338767
  -Hartree energ DENC   =      -842.07548473
  -exchange      EXHF   =         0.00000000
  -V(xc)+E(xc)   XCENC  =       174.80520012
  PAW double counting   =      4134.13536262    -4114.71937964
  entropy T*S    EENTRO =         0.00000000
  eigenvalues    EBANDS =      -401.51298847
  atomic energy  EATOM  =      3578.83610127
  Solvation  Ediel_sol  =         0.00000000
  free energy    TOTEN  =       -41.99646310 eV

  energy without entropy =      -41.99646310  energy(sigma->0) =      -41.99646310

 average (electrostatic) potential at core
  the test charge radii are     1.2192  1.0397  0.7215
  (the norm of the test charge is              1.0000)
       1 -32.5946       2 -76.6411       3 -69.5910       4 -69.5910       5 -69.5910

 E-fermi :   3.7812     XC(G=0): -11.5893     alpha+bet :-14.7409

 k-point     1 :       0.0000    0.0000    0.0000
  band No.  band energies     occupation
      1     -52.5190      2.00000
      2     -28.8505      2.00000
      3     -28.8505      2.00000
      4     -28.8505      2.00000
      5     -20.9327      2.00000
      6     -13.0514      2.00000
      7     -12.3623      2.00000
      8     -12.3623      2.00000
      9      -6.1191      2.00000
     10      -6.1191      2.00000
     11      -6.1191      2.00000
     12       1.4778      2.00000
     13       1.4778      2.00000
     14       1.4778      2.00000
     15       2.6622      2.00000
     16       2.6622      2.00000
     17       2.6622      2.00000
     18       3.6619      2.00000
     19       3.6619      2.00000
     20       3.6619      2.00000
     21       5.5249      0.00000
     22       5.5249      0.00000
     23       5.5249      0.00000
     24       7.8140      0.00000

[...]

 k-point   120 :       0.4667    0.4667    0.4667
  band No.  band energies     occupation
      1     -52.5156      2.00000
      2     -28.9007      2.00000
      3     -28.9007      2.00000
      4     -28.9007      2.00000
      5     -20.6459      2.00000
      6     -12.1290      2.00000
      7     -12.1091      2.00000
      8     -12.1091      2.00000
      9      -6.8760      2.00000
     10      -6.8760      2.00000
     11      -6.8489      2.00000
     12      -0.7380      2.00000
     13      -0.1000      2.00000
     14      -0.1000      2.00000
     15       1.3331      2.00000
     16       1.3786      2.00000
     17       1.3786      2.00000
     18       3.7579      2.00000
     19       3.7579      2.00000
     20       3.7801      2.00000
     21       8.0334      0.00000
     22       8.0341      0.00000
     23       8.0341      0.00000
     24      10.5496      0.00000

 soft charge-density along one line, spin component           1
         0         1         2         3         4         5         6         7         8         9
 total charge-density along one line

------------------------ aborting loop because EDIFF is reached ----------------------------------------

 total charge

# of ion       s       p       d       tot
    1        2.004   5.636   0.346   7.987
    2        2.216   6.283   1.721  10.221
    3        1.534   3.697   0.000   5.231
    4        1.573   3.251   0.000   4.824
    5        1.559   3.419   0.000   4.978
tot          8.886  22.286   2.068  33.240

  FORCE on cell =-STRESS in cart. coord.  units (eV):
  Direction    XX          YY          ZZ          XY          YZ          ZX
  Alpha Z   262.28811   262.28811   262.28811
  Ewald    -944.58527  -944.58527  -944.58527     0.00000     0.00000    -0.00000
  Hartree   280.68969   280.68969   280.68969    -0.00000    -0.00000    -0.00000
  E(xc)    -184.46596  -184.46596  -184.46596     0.00000    -0.00000    -0.00000
  Local     -56.71003   -56.71003   -56.71003     0.00000    -0.00000     0.00000
  n-local  -149.77596  -140.57629  -128.66027     0.26984     0.77304     0.32769
  augment    70.12274    70.12274    70.12274    -0.00000     0.00000     0.00000
  Kinetic   708.39209   716.14634   712.24188    -3.78053    -5.03331    -2.81537
  Fock        0.00000     0.00000     0.00000     0.00000     0.00000     0.00000
  Total      -0.07146    -0.07146    -0.07146    -0.00000     0.00000    -0.00000
  in kB      -1.80998    -1.80998    -1.80998    -0.00000     0.00000    -0.00000

 VOLUME and BASIS-vectors are now :
  energy-cutoff  :      700.00
  volume of cell :       63.25
      direct lattice vectors                 reciprocal lattice vectors
     3.984343411  0.000000000  0.000000000     0.250982382  0.000000000  0.000000000
     0.000000000  3.984343411  0.000000000     0.000000000  0.250982382  0.000000000
     0.000000000  0.000000000  3.984343411     0.000000000  0.000000000  0.250982382

  length of vectors
     3.984343411  3.984343411  3.984343411     0.250982382  0.250982382  0.250982382

 FORCES acting on ions
    electron-ion (+dipol)            ewald-force                    non-local-force                 convergence-correction
   -.945E-14 -.109E-13 -.401E-14   -.563E-14 -.453E-15 -.540E-14   0.000E+00 0.000E+00 0.000E+00   0.151E-13 0.160E-14 0.158E-13
   0.499E-12 0.206E-11 0.646E-11   0.326E-14 0.111E-13 0.560E-14   0.000E+00 0.000E+00 0.000E+00   -.135E-12 -.131E-12 -.130E-12
   0.179E-12 0.199E-11 0.110E-11   0.509E-15 0.737E-15 -.700E-15   0.000E+00 0.000E+00 0.000E+00   -.236E-13 -.168E-14 0.266E-13
   -.456E-13 0.182E-12 0.174E-12   0.180E-14 -.136E-14 0.957E-15   0.000E+00 0.000E+00 0.000E+00   0.405E-13 -.235E-13 -.521E-13
   0.177E-12 -.471E-13 0.416E-11   0.260E-15 -.927E-14 0.935E-15   0.000E+00 0.000E+00 0.000E+00   -.261E-14 0.231E-13 -.468E-13
   0.800E-12 0.417E-11 0.119E-10   0.199E-15 0.767E-15 0.140E-14   0.000E+00 0.000E+00 0.000E+00   -.106E-12 -.131E-12 -.187E-12

 POSITION                                       TOTAL-FORCE (eV/Angst)
      0.00000      0.00000      0.00000         0.000000      0.000000      0.000000
      1.99217      1.99217      1.99217         0.000000      0.000000      0.000000
      1.99217      1.99217      0.00000         0.000000      0.000000      0.000000
      0.00000      1.99217      1.99217         0.000000      0.000000      0.000000
      1.99217      0.00000      1.99217         0.000000      0.000000      0.000000
    total drift:                                0.000000      0.000000      0.000000

  FREE ENERGIE OF THE ION-ELECTRON SYSTEM (eV)
  free  energy   TOTEN  =       -41.99646310 eV

  energy  without entropy=      -41.99646310  energy(sigma->0) =      -41.99646310

 total charge

# of ion       s       p       d       tot
    1        2.004   5.636   0.346   7.987
    2        2.216   6.283   1.721  10.221
    3        1.534   3.697   0.000   5.231
    4        1.573   3.251   0.000   4.824
    5        1.559   3.419   0.000   4.978
tot          8.886  22.286   2.068  33.240

 BZINTS: Fermi energy:  3.781250; 40.000000 electrons
         Band energy:-401.512988;  BLOECHL correction:  0.000000